25
9
21 17 5 4 1 18 23 6 11 12 13 2 3 8 20
20 4 23 12 13 22 14 3 5 18 0 24 1 6 8 11 17 21 19 2 7 10
15 0 22 10 24 18 12 16 8 4 7 5 23
2 23 10 6 5 18 16 7 14 0 12 1 20 22 3 8 4 19 9 11 13 17 15
0 3 15 4 2 11 16 21 22
19 13 16 1 23 4 21 3 12 7 8 22 20 18
15 21 16 1 17 8 13 18 2 5 22 19 14 4 6
3 13 5 0 6 8 9 19
6 3 4
